100
324 621 9 983 823 1000 264 200 55 194 25 692 366 816 761 350 167 348 31 649 190 149 889 438 947 981 664 250 148 247 737 512 298 18 352 393 70 250 296 416 494 566 850 295 95 304 217 576 477 322 95 752 624 624 703 855 36 189 472 701 505 506 308 244 874 983 500 468 129 602 212 626 279 468 866 312 535 319 486 868 493 965 408 455 645 502 672 291 14 423 65 249 598 691 910 679 556 345 477 289 
244 628 69 944 871 1006 226 271 4 148 41 727 316 913 682 340 161 397 34 581 239 207 904 519 926 971 664 175 214 159 652 594 288 18 430 331 78 152 224 412 534 491 903 324 132 397 213 476 388 397 22 706 655 672 754 867 45 270 375 652 603 443 377 264 901 1010 490 536 40 559 267 674 307 506 825 332 549 382 432 824 457 906 454 453 558 581 677 356 85 403 53 259 687 752 1002 693 565 305 487 300 
22765
